70
2427 2125
1395 3515
2826 1305
2146 3831
2782 1034
3535 1072
2670 2276
477 3921
2219 3050
1845 2125
2254 2751
989 2016
2543 1099
3148 2008
3704 2432
1885 3444
3065 2142
35 395
1373 1044
2236 1008
1149 2311
2056 3541
2515 3096
2011 2158
2386 3297
113 2071
3124 2976
2338 1720
724 600
919 2344
2333 52
955 2032
3906 3501
3413 2897
1680 2574
2358 937
865 2422
2510 913
2930 1437
1284 1803
1207 2011
1541 2715
1230 2117
443 178
3569 3162
194 115
3728 3389
1272 1840
830 1827
2548 20
3851 848
312 2567
3730 925
3337 3597
115 1820
159 80
2596 1183
1880 1599
3364 1686
2961 3383
528 1400
3160 1729
3929 3140
476 3516
1782 1480
2086 1853
3670 3938
1612 2164
2072 1188
3 2160